gen cost
0 1425
1 1408
2 1369
3 1347
4 1330
5 1311
6 1298
7 1288
8 1281
9 1276
10 1274
11 1272
12 1269
13 1266
14 1263
15 1263
16 1263
17 1263
18 1261
19 1261
20 1261
21 1261
22 1261
23 1261
24 1261
25 1261
26 1261
27 1261
28 1261
29 1261
30 1261
31 1261
32 1261
33 1261
34 1261
35 1261
36 1261
37 1261
38 1261
39 1261
40 1261
41 1261
42 1261
43 1261
44 1261
45 1261
46 1261
47 1261
48 1261
49 1261
